NAME : portcgen-22-18
COMMENT : portcgen N=22, seed=18
TYPE : TSP
DIMENSION : 22
EDGE_WEIGHT_TYPE : EUC_2D
NODE_COORD_SECTION
1 264200 88748
2 -246788 402017
3 145132 527372
4 141655 98214
5 83503 160221
6 -172694 177298
7 -59213 297082
8 -348874 -319256
9 122761 240514
10 260553 166621
11 360605 -246924
12 109379 -358867
13 -68633 -66999
14 81645 265413
15 158021 -524282
16 -7528 285983
17 40937 -88591
18 -12573 5343
19 291436 23531
20 101203 -13361
21 -186984 -48866
22 238973 -105837
